p wcnf 112 56 57 
1 4 48 0 
1 93 29 0 
1 81 3 0 
1 -55 -34 0 
1 -62 -82 0 
1 -97 -1 0 
1 -22 108 0 
1 -102 108 0 
1 -74 98 0 
1 -13 -97 0 
1 59 -41 0 
1 -80 74 0 
1 71 51 0 
1 -5 -46 0 
1 -78 -97 0 
1 -15 58 0 
1 65 37 0 
1 -22 -109 0 
1 -81 99 0 
1 -72 58 0 
1 40 5 0 
1 -28 98 0 
1 9 60 0 
1 -62 -15 0 
1 12 -92 0 
1 -69 75 0 
1 -89 8 0 
1 14 81 0 
1 -97 89 0 
1 -9 43 0 
1 13 59 0 
1 79 26 0 
1 87 70 0 
1 32 68 0 
1 36 54 0 
1 -5 81 0 
1 -85 -92 0 
1 87 -45 0 
1 -41 -104 0 
1 -81 -103 0 
1 -34 102 0 
1 97 -76 0 
1 8 80 0 
1 -81 17 0 
1 -54 -31 0 
1 4 -19 0 
1 -7 53 0 
1 31 72 0 
1 80 -64 0 
1 -67 -110 0 
1 33 91 0 
1 -25 -7 0 
1 -30 -110 0 
1 58 104 0 
1 50 35 0 
1 -86 -31 0 
